p tw 66 72
1 2
2 13
3 4
4 5
5 6
5 10
6 7
7 8
8 9
9 10
9 21
10 11
11 12
12 14
13 24
13 35
14 15
15 16
16 17
17 18
18 19
19 20
20 59
21 22
22 23
23 25
24 62
25 26
26 27
27 28
27 30
28 29
29 38
30 31
31 32
31 36
32 33
33 34
34 38
35 46
36 37
37 38
38 39
39 40
40 41
40 59
41 42
42 43
43 44
44 45
45 47
46 57
47 48
48 49
49 50
49 59
50 51
51 52
52 53
53 54
54 55
55 56
56 58
57 64
58 59
59 60
60 61
61 62
62 63
64 65
65 66
66 3
